*******************************************************************************
* Problem type: SC-CP16
* Input file: ../instances/bp-100-20-4-10-15454.dat
* 4 objectives
* 100 variables
* 20 constraints
*******************************************************************************

min: +52 x39 +100 x40 +61 x41 +66 x46 +97 x47 +72 x48 +33 x49 +90 x60 +72 x61 +14 x62 ;
 +1 x50 >= 1 ;
 +1 x61 >= 1 ;
 +1 x18 +1 x20 >= 1 ;
 +1 x25 >= 1 ;
 +1 x91 >= 1 ;
 +1 x48 >= 1 ;
 +1 x98 >= 1 ;
 +1 x54 >= 1 ;
 +1 x4 +1 x29 >= 1 ;
